3 
4 
5  25 40 55 
6  10 25 37 44 52 59 
7  05 13 20 28 35 43 50 58 
8  05 13 20 28 35 43 50 58 
9  05 13 20 28 35 43 50 58 
10  05 13 20 28 35 43 50 58 
11  05 13 20 28 35 43 50 58 
12  05 13 20 28 35 43 50 58 
13  05 14 22 29 36 44 51 59 
14  06 14 21 29 36 44 51 59 
15  06 14 21 28 36 43 51 58 
16  06 13 21 28 36 43 51 58 
17  06 13 21 28 36 43 51 58 
18  06 13 21 28 36 43 51 58 
19  06 12 19 26 35 43 51 58 
20  06 14 21 28 36 43 56 
21  11 26 41 56 
22  11 26 39 54 
23  07 18 
0 
